language ESSENCE' 1.0

letting fixed be 
[
    [9,2,3,4,0,7,0,1,5],
    [8,7,6,0,5,0,9,2,4],
    [5,0,0,2,0,0,0,3,0],
    [7,6,9,0,2,0,1,4,0],
    [4,3,2,0,0,0,0,5,9],
    [1,8,5,0,0,4,2,6,0],
    [0,9,8,0,4,2,0,7,1],
    [2,0,7,0,3,0,4,8,6],
    [0,0,0,7,0,8,0,9,2]
]